1035513
29,51,25,78,73,95,47,57,33,9,32,72,44,55,91,53,8,89,85,3,5,64,27,2,67,61,58,82,11,23,65,52,22,84,92,39,14,7,4,66,87,76,38,50,35,97,42,83,15,16,88,36,99,70,48,1,60,20,21,96,30,77,10,18,69,75,6,41,56,31,62,49,93,63,13,68,80,37,74,45,81,86,43,24,54,98,28,46,34,71,90,59,19,12,17,26,94,40,79